149
Route #1: 1 
Route #2: 2 28 87 
Route #3: 3 47 
Route #4: 4 57 92 
Route #5: 5 82 
Route #6: 6 
Route #7: 7 69 94 
Route #8: 8 35 
Route #9: 9 54 
Route #10: 10 84 
Route #11: 11 
Route #12: 12 43 
Route #13: 13 65 
Route #14: 14 80 
Route #15: 15 40 97 
Route #16: 16 67 89 
Route #17: 17 30 85 
Route #18: 18 79 
Route #19: 19 66 83 
Route #20: 20 88 99 
Route #21: 21 51 
Route #22: 22 63 117 
Route #23: 23 52 
Route #24: 24 81 
Route #25: 25 60 90 
Route #26: 26 
Route #27: 27 53 98 
Route #28: 29 59 
Route #29: 31 62 111 
Route #30: 32 
Route #31: 33 75 86 
Route #32: 34 91 105 
Route #33: 36 73 95 102 116 
Route #34: 37 104 
Route #35: 38 56 78 
Route #36: 39 50 93 152 
Route #37: 41 68 96 136 
Route #38: 42 49 106 125 142 
Route #39: 44 127 
Route #40: 45 61 109 121 
Route #41: 46 101 
Route #42: 48 71 108 144 
Route #43: 55 115 
Route #44: 58 113 154 
Route #45: 64 107 
Route #46: 70 114 137 
Route #47: 72 100 145 
Route #48: 74 110 141 167 
Route #49: 76 103 131 183 
Route #50: 77 112 140 
Route #51: 118 201 
Route #52: 119 193 
Route #53: 120 173 224 
Route #54: 122 207 
Route #55: 123 204 
Route #56: 124 175 
Route #57: 126 191 209 
Route #58: 128 146 212 
Route #59: 129 163 194 221 
Route #60: 130 148 181 215 
Route #61: 132 176 226 
Route #62: 133 206 
Route #63: 134 213 
Route #64: 135 179 228 
Route #65: 138 155 184 238 
Route #66: 139 187 230 
Route #67: 143 190 
Route #68: 147 199 217 237 
Route #69: 149 164 205 246 
Route #70: 150 182 255 
Route #71: 151 192 210 229 
Route #72: 153 172 233 
Route #73: 156 178 218 249 273 
Route #74: 157 220 
Route #75: 158 188 261 
Route #76: 159 227 
Route #77: 160 244 
Route #78: 161 251 
Route #79: 162 216 
Route #80: 165 232 
Route #81: 166 185 253 
Route #82: 168 223 235 
Route #83: 169 211 242 276 
Route #84: 170 243 
Route #85: 171 222 266 
Route #86: 174 214 313 
Route #87: 177 247 299 
Route #88: 180 264 
Route #89: 186 219 236 257 
Route #90: 189 231 262 
Route #91: 195 250 296 
Route #92: 196 245 323 
Route #93: 197 234 293 
Route #94: 198 248 288 
Route #95: 200 240 287 
Route #96: 202 239 295 
Route #97: 203 258 309 
Route #98: 208 225 294 
Route #99: 241 304 
Route #100: 252 285 343 
Route #101: 254 329 
Route #102: 256 283 319 335 357 378 
Route #103: 259 278 314 360 
Route #104: 260 286 369 
Route #105: 263 340 
Route #106: 265 354 
Route #107: 267 318 345 373 
Route #108: 268 350 
Route #109: 269 302 331 375 
Route #110: 270 321 352 
Route #111: 271 338 356 
Route #112: 272 332 348 391 
Route #113: 274 326 371 
Route #114: 275 349 
Route #115: 277 358 
Route #116: 279 359 
Route #117: 280 310 337 389 
Route #118: 281 303 363 
Route #119: 282 346 396 
Route #120: 284 322 400 
Route #121: 289 361 
Route #122: 290 353 
Route #123: 291 377 
Route #124: 292 367 385 
Route #125: 297 370 
Route #126: 298 336 393 
Route #127: 300 347 395 
Route #128: 301 351 
Route #129: 305 379 
Route #130: 306 365 
Route #131: 307 344 392 
Route #132: 308 374 
Route #133: 311 341 398 
Route #134: 312 327 364 383 394 
Route #135: 315 382 
Route #136: 316 342 368 390 
Route #137: 317 362 
Route #138: 320 387 
Route #139: 324 366 
Route #140: 325 376 
Route #141: 328 372 
Route #142: 330 380 
Route #143: 333 355 
Route #144: 334 388 
Route #145: 339 397 
Route #146: 381 
Route #147: 384 
Route #148: 386 
Route #149: 399 
Cost 255604.0
